c This is a CNF SAT formula in the DIMACS CNF format,
c produced with the bc2cnf translator by Tommi Junttila;
c see http://users.ics.aalto.fi/tjunttil/circuits/index.html
c phi_Gamma <-> 1
c phi_T_feature_det <-> 1
c phi_T_transitions <-> 1
c phi_T_transitions_consistency <-> 1
c phi_T <-> 1
c phi_sim_leaves <-> 1
c phi_sim_transition <-> 1
c phi_sim <-> 1
c FORMULA <-> 1
c pi_2_1 <-> 2
c pi_2_9 <-> 2
c pi_1_1 <-> 9
c pi_1_9 <-> 9
c pi_0_1 <-> 20
c pi_0_9 <-> 20
c pi_2_8 <-> 35
c pi_1_8 <-> 42
c pi_0_8 <-> 53
c pi_2_7 <-> 68
c pi_1_7 <-> 72
c pi_0_7 <-> 82
c pi_2_6 <-> 96
c pi_1_6 <-> 100
c pi_0_6 <-> 110
c pi_2_5 <-> 124
c pi_1_5 <-> 128
c pi_0_5 <-> 138
c pi_2_4 <-> 152
c pi_1_4 <-> 154
c pi_0_4 <-> 163
c pi_2_3 <-> 176
c pi_1_3 <-> 179
c pi_0_3 <-> 188
c pi_2_2 <-> 201
c pi_1_2 <-> 205
c pi_0_2 <-> 215
c pi_2_0 <-> 229
c pi_1_0 <-> 230
c pi_0_0 <-> 239
c alp_alert_0_0 <-> 252
c alp_alert_0_1 <-> 252
c alp_alert_0_2 <-> 252
c alp_alert_0_3 <-> 252
c alp_alert_0_4 <-> 252
c alp_alert_1_5 <-> 252
c alp_alert_0_6 <-> 252
c alp_alert_0_7 <-> 252
c alp_alert_1_8 <-> 252
c alp_alert_0_9 <-> 252
c alp_alert_0_5 <-> 253
c alp_alert_0_8 <-> 253
c alert_P0 <-> 253
c alp_alert_1_0 <-> 254
c alp_alert_1_1 <-> 254
c alp_alert_1_2 <-> 254
c alp_alert_1_3 <-> 254
c alp_alert_1_4 <-> 254
c alp_alert_1_6 <-> 254
c alp_alert_1_7 <-> 254
c alp_alert_1_9 <-> 254
c alert_P100 <-> 254
c tau_2_5_alert_1 <-> 294
c tau_2_5_alert_0 <-> 295
c tau_2_4_alert_1 <-> 300
c tau_2_4_alert_0 <-> 301
c tau_2_3_alert_1 <-> 302
c tau_2_3_alert_0 <-> 303
c tau_2_2_alert_1 <-> 304
c tau_2_2_alert_0 <-> 305
c tau_2_1_alert_1 <-> 306
c tau_2_1_alert_0 <-> 307
c tau_2_0_alert_1 <-> 308
c tau_2_0_alert_0 <-> 309
c tau_1_5_alert_1 <-> 356
c tau_1_5_alert_0 <-> 357
c tau_1_5_2 <-> 358
c tau_1_4_alert_1 <-> 367
c tau_1_4_alert_0 <-> 368
c tau_1_4_2 <-> 369
c tau_1_3_alert_1 <-> 370
c tau_1_3_alert_0 <-> 371
c tau_1_3_2 <-> 372
c tau_1_2_alert_1 <-> 373
c tau_1_2_alert_0 <-> 374
c tau_1_2_2 <-> 375
c tau_1_1_alert_1 <-> 376
c tau_1_1_alert_0 <-> 377
c tau_1_1_2 <-> 378
c tau_1_0_alert_1 <-> 379
c tau_1_0_alert_0 <-> 380
c tau_1_0_2 <-> 381
c tau_0_5_alert_1 <-> 457
c tau_0_5_alert_0 <-> 459
c tau_0_5_2 <-> 460
c tau_0_5_1 <-> 461
c tau_0_4_alert_1 <-> 476
c tau_0_4_alert_0 <-> 478
c tau_0_4_2 <-> 479
c tau_0_4_1 <-> 480
c tau_0_3_alert_1 <-> 481
c tau_0_3_alert_0 <-> 482
c tau_0_3_2 <-> 483
c tau_0_3_1 <-> 484
c tau_0_2_alert_1 <-> 485
c tau_0_2_alert_0 <-> 486
c tau_0_2_2 <-> 487
c tau_0_2_1 <-> 488
c tau_0_1_alert_1 <-> 489
c tau_0_1_alert_0 <-> 490
c tau_0_1_2 <-> 491
c tau_0_1_1 <-> 492
c tau_0_0_alert_1 <-> 493
c tau_0_0_alert_0 <-> 494
c tau_0_0_2 <-> 495
c tau_0_0_1 <-> 496
c lam_2_day_time <-> 500
c lam_2_clouds <-> 501
c lam_1_day_time <-> 505
c lam_1_clouds <-> 506
c lam_0_day_time <-> 510
c lam_0_clouds <-> 511
p wcnf 511 1374 11  
11 1 0
11 2 -3 0
11 2 -6 0
11 -2 6 3 0
11 -3 4 0
11 -3 500 0
11 3 -500 -4 0
11 -4 5 0
11 -4 -307 0
11 4 307 -5 0
11 5 306 0
11 5 -254 0
11 -5 254 -306 0
11 -6 7 0
11 -6 501 0
11 6 -501 -7 0
11 -7 8 0
11 -7 -305 0
11 7 305 -8 0
11 8 304 0
11 8 -254 0
11 -8 254 -304 0
11 9 -10 0
11 9 -15 0
11 -9 15 10 0
11 -10 11 0
11 -10 505 0
11 10 -505 -11 0
11 -11 12 0
11 -11 13 0
11 11 -13 -12 0
11 12 376 0
11 12 -254 0
11 -12 254 -376 0
11 -13 -377 0
11 -13 14 0
11 13 -14 377 0
11 14 -2 0
11 14 378 0
11 -14 -378 2 0
11 -15 16 0
11 -15 506 0
11 15 -506 -16 0
11 -16 17 0
11 -16 18 0
11 16 -18 -17 0
11 17 373 0
11 17 -254 0
11 -17 254 -373 0
11 -18 -374 0
11 -18 19 0
11 18 -19 374 0
11 19 -2 0
11 19 375 0
11 -19 -375 2 0
11 20 -21 0
11 20 -28 0
11 -20 28 21 0
1 20 0
11 -21 22 0
11 -21 510 0
11 21 -510 -22 0
11 -22 23 0
11 -22 24 0
11 22 -24 -23 0
11 23 489 0
11 23 -254 0
11 -23 254 -489 0
11 -24 -490 0
11 -24 25 0
11 24 -25 490 0
11 -25 26 0
11 -25 27 0
11 25 -27 -26 0
11 26 -2 0
11 26 491 0
11 -26 -491 2 0
11 27 -9 0
11 27 492 0
11 -27 -492 9 0
11 -28 29 0
11 -28 511 0
11 28 -511 -29 0
11 -29 30 0
11 -29 31 0
11 29 -31 -30 0
11 30 485 0
11 30 -254 0
11 -30 254 -485 0
11 -31 -486 0
11 -31 32 0
11 31 -32 486 0
11 -32 33 0
11 -32 34 0
11 32 -34 -33 0
11 33 -2 0
11 33 487 0
11 -33 -487 2 0
11 34 -9 0
11 34 488 0
11 -34 -488 9 0
11 35 -36 0
11 35 -39 0
11 -35 39 36 0
11 -36 37 0
11 -36 500 0
11 36 -500 -37 0
11 -37 -308 0
11 -37 38 0
11 37 -38 308 0
11 38 309 0
11 38 -253 0
11 -38 253 -309 0
11 -39 40 0
11 -39 501 0
11 39 -501 -40 0
11 -40 -294 0
11 -40 41 0
11 40 -41 294 0
11 41 295 0
11 41 -253 0
11 -41 253 -295 0
11 42 -43 0
11 42 -48 0
11 -42 48 43 0
11 -43 44 0
11 -43 505 0
11 43 -505 -44 0
11 -44 -379 0
11 -44 45 0
11 44 -45 379 0
11 -45 46 0
11 -45 47 0
11 45 -47 -46 0
11 46 380 0
11 46 -253 0
11 -46 253 -380 0
11 47 -35 0
11 47 381 0
11 -47 -381 35 0
11 -48 49 0
11 -48 506 0
11 48 -506 -49 0
11 -49 -356 0
11 -49 50 0
11 49 -50 356 0
11 -50 51 0
11 -50 52 0
11 50 -52 -51 0
11 51 357 0
11 51 -253 0
11 -51 253 -357 0
11 52 -35 0
11 52 358 0
11 -52 -358 35 0
11 53 -54 0
11 53 -61 0
11 -53 61 54 0
1 53 0
11 -54 55 0
11 -54 510 0
11 54 -510 -55 0
11 -55 -493 0
11 -55 56 0
11 55 -56 493 0
11 -56 57 0
11 -56 58 0
11 56 -58 -57 0
11 57 494 0
11 57 -253 0
11 -57 253 -494 0
11 -58 59 0
11 -58 60 0
11 58 -60 -59 0
11 59 -35 0
11 59 495 0
11 -59 -495 35 0
11 60 -42 0
11 60 496 0
11 -60 -496 42 0
11 -61 62 0
11 -61 511 0
11 61 -511 -62 0
11 -62 -457 0
11 -62 63 0
11 62 -63 457 0
11 -63 64 0
11 -63 65 0
11 63 -65 -64 0
11 64 459 0
11 64 -253 0
11 -64 253 -459 0
11 -65 66 0
11 -65 67 0
11 65 -67 -66 0
11 66 -35 0
11 66 460 0
11 -66 -460 35 0
11 67 -42 0
11 67 461 0
11 -67 -461 42 0
11 68 -6 0
11 68 -69 0
11 -68 69 6 0
11 -69 70 0
11 -69 500 0
11 69 -500 -70 0
11 -70 -309 0
11 -70 71 0
11 70 -71 309 0
11 71 308 0
11 71 -254 0
11 -71 254 -308 0
11 72 -73 0
11 72 -78 0
11 -72 78 73 0
11 -73 74 0
11 -73 505 0
11 73 -505 -74 0
11 -74 75 0
11 -74 76 0
11 74 -76 -75 0
11 75 379 0
11 75 -254 0
11 -75 254 -379 0
11 -76 -380 0
11 -76 77 0
11 76 -77 380 0
11 77 381 0
11 77 -68 0
11 -77 68 -381 0
11 -78 79 0
11 -78 506 0
11 78 -506 -79 0
11 -79 17 0
11 -79 80 0
11 79 -80 -17 0
11 -80 -374 0
11 -80 81 0
11 80 -81 374 0
11 81 375 0
11 81 -68 0
11 -81 68 -375 0
11 82 -83 0
11 82 -90 0
11 -82 90 83 0
1 82 0
11 -83 84 0
11 -83 510 0
11 83 -510 -84 0
11 -84 85 0
11 -84 86 0
11 84 -86 -85 0
11 85 493 0
11 85 -254 0
11 -85 254 -493 0
11 -86 -494 0
11 -86 87 0
11 86 -87 494 0
11 -87 88 0
11 -87 89 0
11 87 -89 -88 0
11 88 495 0
11 88 -68 0
11 -88 68 -495 0
11 89 496 0
11 89 -72 0
11 -89 72 -496 0
11 -90 91 0
11 -90 511 0
11 90 -511 -91 0
11 -91 30 0
11 -91 92 0
11 91 -92 -30 0
11 -92 -486 0
11 -92 93 0
11 92 -93 486 0
11 -93 94 0
11 -93 95 0
11 93 -95 -94 0
11 94 487 0
11 94 -68 0
11 -94 68 -487 0
11 95 488 0
11 95 -72 0
11 -95 72 -488 0
11 96 -69 0
11 96 -97 0
11 -96 97 69 0
11 -97 98 0
11 -97 501 0
11 97 -501 -98 0
11 -98 99 0
11 -98 -303 0
11 98 303 -99 0
11 99 302 0
11 99 -254 0
11 -99 254 -302 0
11 100 -101 0
11 100 -105 0
11 -100 105 101 0
11 -101 102 0
11 -101 505 0
11 101 -505 -102 0
11 -102 75 0
11 -102 103 0
11 102 -103 -75 0
11 -103 -380 0
11 -103 104 0
11 103 -104 380 0
11 104 381 0
11 104 -96 0
11 -104 96 -381 0
11 -105 106 0
11 -105 506 0
11 105 -506 -106 0
11 -106 107 0
11 -106 108 0
11 106 -108 -107 0
11 107 370 0
11 107 -254 0
11 -107 254 -370 0
11 -108 -371 0
11 -108 109 0
11 108 -109 371 0
11 109 -96 0
11 109 372 0
11 -109 -372 96 0
11 110 -111 0
11 110 -117 0
11 -110 117 111 0
1 110 0
11 -111 112 0
11 -111 510 0
11 111 -510 -112 0
11 -112 85 0
11 -112 113 0
11 112 -113 -85 0
11 -113 -494 0
11 -113 114 0
11 113 -114 494 0
11 -114 115 0
11 -114 116 0
11 114 -116 -115 0
11 115 495 0
11 115 -96 0
11 -115 96 -495 0
11 116 496 0
11 116 -100 0
11 -116 100 -496 0
11 -117 118 0
11 -117 511 0
11 117 -511 -118 0
11 -118 119 0
11 -118 120 0
11 118 -120 -119 0
11 119 481 0
11 119 -254 0
11 -119 254 -481 0
11 -120 -482 0
11 -120 121 0
11 120 -121 482 0
11 -121 122 0
11 -121 123 0
11 121 -123 -122 0
11 122 -96 0
11 122 483 0
11 -122 -483 96 0
11 123 -100 0
11 123 484 0
11 -123 -484 100 0
11 124 -39 0
11 124 -125 0
11 -124 125 39 0
11 -125 126 0
11 -125 500 0
11 125 -500 -126 0
11 -126 -306 0
11 -126 127 0
11 126 -127 306 0
11 127 307 0
11 127 -253 0
11 -127 253 -307 0
11 128 -129 0
11 128 -134 0
11 -128 134 129 0
11 -129 130 0
11 -129 505 0
11 129 -505 -130 0
11 -130 -376 0
11 -130 131 0
11 130 -131 376 0
11 -131 132 0
11 -131 133 0
11 131 -133 -132 0
11 132 377 0
11 132 -253 0
11 -132 253 -377 0
11 133 378 0
11 133 -124 0
11 -133 124 -378 0
11 -134 135 0
11 -134 506 0
11 134 -506 -135 0
11 -135 -356 0
11 -135 136 0
11 135 -136 356 0
11 -136 51 0
11 -136 137 0
11 136 -137 -51 0
11 137 358 0
11 137 -124 0
11 -137 124 -358 0
11 138 -139 0
11 138 -146 0
11 -138 146 139 0
1 138 0
11 -139 140 0
11 -139 510 0
11 139 -510 -140 0
11 -140 -489 0
11 -140 141 0
11 140 -141 489 0
11 -141 142 0
11 -141 143 0
11 141 -143 -142 0
11 142 490 0
11 142 -253 0
11 -142 253 -490 0
11 -143 144 0
11 -143 145 0
11 143 -145 -144 0
11 144 491 0
11 144 -124 0
11 -144 124 -491 0
11 145 492 0
11 145 -128 0
11 -145 128 -492 0
11 -146 147 0
11 -146 511 0
11 146 -511 -147 0
11 -147 -457 0
11 -147 148 0
11 147 -148 457 0
11 -148 64 0
11 -148 149 0
11 148 -149 -64 0
11 -149 150 0
11 -149 151 0
11 149 -151 -150 0
11 150 460 0
11 150 -124 0
11 -150 124 -460 0
11 151 461 0
11 151 -128 0
11 -151 128 -461 0
11 152 -6 0
11 152 -153 0
11 -152 153 6 0
11 -153 98 0
11 -153 500 0
11 153 -500 -98 0
11 154 -155 0
11 154 -159 0
11 -154 159 155 0
11 -155 156 0
11 -155 505 0
11 155 -505 -156 0
11 -156 107 0
11 -156 157 0
11 156 -157 -107 0
11 -157 -371 0
11 -157 158 0
11 157 -158 371 0
11 158 372 0
11 158 -152 0
11 -158 152 -372 0
11 -159 160 0
11 -159 506 0
11 159 -506 -160 0
11 -160 17 0
11 -160 161 0
11 160 -161 -17 0
11 -161 -374 0
11 -161 162 0
11 161 -162 374 0
11 162 375 0
11 162 -152 0
11 -162 152 -375 0
11 163 -164 0
11 163 -170 0
11 -163 170 164 0
1 163 0
11 -164 165 0
11 -164 510 0
11 164 -510 -165 0
11 -165 119 0
11 -165 166 0
11 165 -166 -119 0
11 -166 -482 0
11 -166 167 0
11 166 -167 482 0
11 -167 168 0
11 -167 169 0
11 167 -169 -168 0
11 168 483 0
11 168 -152 0
11 -168 152 -483 0
11 169 484 0
11 169 -154 0
11 -169 154 -484 0
11 -170 171 0
11 -170 511 0
11 170 -511 -171 0
11 -171 30 0
11 -171 172 0
11 171 -172 -30 0
11 -172 -486 0
11 -172 173 0
11 172 -173 486 0
11 -173 174 0
11 -173 175 0
11 173 -175 -174 0
11 174 487 0
11 174 -152 0
11 -174 152 -487 0
11 175 488 0
11 175 -154 0
11 -175 154 -488 0
11 176 -177 0
11 176 -178 0
11 -176 178 177 0
11 -177 7 0
11 -177 500 0
11 177 -500 -7 0
11 -178 70 0
11 -178 501 0
11 178 -501 -70 0
11 179 -180 0
11 179 -184 0
11 -179 184 180 0
11 -180 181 0
11 -180 505 0
11 180 -505 -181 0
11 -181 17 0
11 -181 182 0
11 181 -182 -17 0
11 -182 -374 0
11 -182 183 0
11 182 -183 374 0
11 183 375 0
11 183 -176 0
11 -183 176 -375 0
11 -184 185 0
11 -184 506 0
11 184 -506 -185 0
11 -185 75 0
11 -185 186 0
11 185 -186 -75 0
11 -186 -380 0
11 -186 187 0
11 186 -187 380 0
11 187 381 0
11 187 -176 0
11 -187 176 -381 0
11 188 -189 0
11 188 -195 0
11 -188 195 189 0
1 188 0
11 -189 190 0
11 -189 510 0
11 189 -510 -190 0
11 -190 30 0
11 -190 191 0
11 190 -191 -30 0
11 -191 -486 0
11 -191 192 0
11 191 -192 486 0
11 -192 193 0
11 -192 194 0
11 192 -194 -193 0
11 193 487 0
11 193 -176 0
11 -193 176 -487 0
11 194 488 0
11 194 -179 0
11 -194 179 -488 0
11 -195 196 0
11 -195 511 0
11 195 -511 -196 0
11 -196 85 0
11 -196 197 0
11 196 -197 -85 0
11 -197 -494 0
11 -197 198 0
11 197 -198 494 0
11 -198 199 0
11 -198 200 0
11 198 -200 -199 0
11 199 495 0
11 199 -176 0
11 -199 176 -495 0
11 200 496 0
11 200 -179 0
11 -200 179 -496 0
11 201 -153 0
11 201 -202 0
11 -201 202 153 0
11 -202 203 0
11 -202 501 0
11 202 -501 -203 0
11 -203 -295 0
11 -203 204 0
11 203 -204 295 0
11 204 294 0
11 204 -254 0
11 -204 254 -294 0
11 205 -206 0
11 205 -210 0
11 -205 210 206 0
11 -206 207 0
11 -206 505 0
11 206 -505 -207 0
11 -207 107 0
11 -207 208 0
11 207 -208 -107 0
11 -208 -371 0
11 -208 209 0
11 208 -209 371 0
11 209 372 0
11 209 -201 0
11 -209 201 -372 0
11 -210 211 0
11 -210 506 0
11 210 -506 -211 0
11 -211 212 0
11 -211 213 0
11 211 -213 -212 0
11 212 356 0
11 212 -254 0
11 -212 254 -356 0
11 -213 -357 0
11 -213 214 0
11 213 -214 357 0
11 214 358 0
11 214 -201 0
11 -214 201 -358 0
11 215 -216 0
11 215 -222 0
11 -215 222 216 0
1 215 0
11 -216 217 0
11 -216 510 0
11 216 -510 -217 0
11 -217 119 0
11 -217 218 0
11 217 -218 -119 0
11 -218 -482 0
11 -218 219 0
11 218 -219 482 0
11 -219 220 0
11 -219 221 0
11 219 -221 -220 0
11 220 483 0
11 220 -201 0
11 -220 201 -483 0
11 221 484 0
11 221 -205 0
11 -221 205 -484 0
11 -222 223 0
11 -222 511 0
11 222 -511 -223 0
11 -223 224 0
11 -223 225 0
11 223 -225 -224 0
11 224 457 0
11 224 -254 0
11 -224 254 -457 0
11 -225 -459 0
11 -225 226 0
11 225 -226 459 0
11 -226 227 0
11 -226 228 0
11 226 -228 -227 0
11 227 460 0
11 227 -201 0
11 -227 201 -460 0
11 228 461 0
11 228 -205 0
11 -228 205 -461 0
11 229 -97 0
11 229 -177 0
11 -229 177 97 0
11 230 -231 0
11 230 -235 0
11 -230 235 231 0
11 -231 232 0
11 -231 505 0
11 231 -505 -232 0
11 -232 17 0
11 -232 233 0
11 232 -233 -17 0
11 -233 -374 0
11 -233 234 0
11 233 -234 374 0
11 234 375 0
11 234 -229 0
11 -234 229 -375 0
11 -235 236 0
11 -235 506 0
11 235 -506 -236 0
11 -236 107 0
11 -236 237 0
11 236 -237 -107 0
11 -237 -371 0
11 -237 238 0
11 237 -238 371 0
11 238 372 0
11 238 -229 0
11 -238 229 -372 0
11 239 -240 0
11 239 -246 0
11 -239 246 240 0
1 239 0
11 -240 241 0
11 -240 510 0
11 240 -510 -241 0
11 -241 30 0
11 -241 242 0
11 241 -242 -30 0
11 -242 -486 0
11 -242 243 0
11 242 -243 486 0
11 -243 244 0
11 -243 245 0
11 243 -245 -244 0
11 244 487 0
11 244 -229 0
11 -244 229 -487 0
11 245 488 0
11 245 -230 0
11 -245 230 -488 0
11 -246 247 0
11 -246 511 0
11 246 -511 -247 0
11 -247 119 0
11 -247 248 0
11 247 -248 -119 0
11 -248 -482 0
11 -248 249 0
11 248 -249 482 0
11 -249 250 0
11 -249 251 0
11 249 -251 -250 0
11 250 483 0
11 250 -229 0
11 -250 229 -483 0
11 251 484 0
11 251 -230 0
11 -251 230 -484 0
11 -252 0
11 255 500 0
11 255 -256 0
11 -255 256 -500 0
11 255 0
11 -256 -294 0
11 -256 257 0
11 256 -257 294 0
11 -257 -295 0
11 -257 258 0
11 257 -258 295 0
11 -258 -300 0
11 -258 -301 0
11 258 301 300 0
11 259 505 0
11 259 -260 0
11 -259 260 -505 0
11 259 0
11 -260 -356 0
11 -260 261 0
11 260 -261 356 0
11 -261 -357 0
11 -261 262 0
11 261 -262 357 0
11 -262 -358 0
11 -262 263 0
11 262 -263 358 0
11 -263 -367 0
11 -263 264 0
11 263 -264 367 0
11 -264 -368 0
11 -264 -369 0
11 264 369 368 0
11 265 510 0
11 265 -266 0
11 -265 266 -510 0
11 265 0
11 -266 -457 0
11 -266 267 0
11 266 -267 457 0
11 -267 -459 0
11 -267 268 0
11 267 -268 459 0
11 -268 -460 0
11 -268 269 0
11 268 -269 460 0
11 -269 -461 0
11 -269 270 0
11 269 -270 461 0
11 -270 -476 0
11 -270 271 0
11 270 -271 476 0
11 -271 -478 0
11 -271 272 0
11 271 -272 478 0
11 -272 -479 0
11 -272 -480 0
11 272 480 479 0
11 273 500 0
11 273 -274 0
11 -273 274 -500 0
11 273 0
11 -274 275 0
11 -274 278 0
11 274 -278 -275 0
11 275 -276 0
11 275 -277 0
11 -275 277 276 0
11 -276 -303 0
11 -276 302 0
11 276 -302 303 0
11 -277 -302 0
11 -277 303 0
11 277 -303 302 0
11 -278 279 0
11 -278 282 0
11 278 -282 -279 0
11 279 -280 0
11 279 -281 0
11 -279 281 280 0
11 -280 -305 0
11 -280 304 0
11 280 -304 305 0
11 -281 -304 0
11 -281 305 0
11 281 -305 304 0
11 -282 283 0
11 -282 286 0
11 282 -286 -283 0
11 283 -284 0
11 283 -285 0
11 -283 285 284 0
11 -284 -307 0
11 -284 306 0
11 284 -306 307 0
11 -285 -306 0
11 -285 307 0
11 285 -307 306 0
11 286 -287 0
11 286 -288 0
11 -286 288 287 0
11 -287 -309 0
11 -287 308 0
11 287 -308 309 0
11 -288 -308 0
11 -288 309 0
11 288 -309 308 0
11 289 501 0
11 289 -290 0
11 -289 290 -501 0
11 289 0
11 -290 291 0
11 -290 296 0
11 290 -296 -291 0
11 291 -292 0
11 291 -293 0
11 -291 293 292 0
11 -292 -295 0
11 -292 294 0
11 292 -294 295 0
11 -293 -294 0
11 -293 295 0
11 293 -295 294 0
11 -296 274 0
11 -296 297 0
11 296 -297 -274 0
11 297 -298 0
11 297 -299 0
11 -297 299 298 0
11 -298 -301 0
11 -298 300 0
11 298 -300 301 0
11 -299 -300 0
11 -299 301 0
11 299 -301 300 0
11 310 505 0
11 310 -311 0
11 -310 311 -505 0
11 310 0
11 -311 312 0
11 -311 320 0
11 311 -320 -312 0
11 312 -313 0
11 312 -318 0
11 -312 318 313 0
11 313 -314 0
11 313 -316 0
11 -313 316 314 0
11 -314 315 0
11 -314 370 0
11 314 -370 -315 0
11 -315 -371 0
11 -315 -372 0
11 315 372 371 0
11 -316 317 0
11 -316 371 0
11 316 -371 -317 0
11 -317 -370 0
11 -317 -372 0
11 317 372 370 0
11 -318 319 0
11 -318 372 0
11 318 -372 -319 0
11 -319 -370 0
11 -319 -371 0
11 319 371 370 0
11 -320 321 0
11 -320 329 0
11 320 -329 -321 0
11 321 -322 0
11 321 -327 0
11 -321 327 322 0
11 322 -323 0
11 322 -325 0
11 -322 325 323 0
11 -323 324 0
11 -323 373 0
11 323 -373 -324 0
11 -324 -374 0
11 -324 -375 0
11 324 375 374 0
11 -325 326 0
11 -325 374 0
11 325 -374 -326 0
11 -326 -373 0
11 -326 -375 0
11 326 375 373 0
11 -327 328 0
11 -327 375 0
11 327 -375 -328 0
11 -328 -373 0
11 -328 -374 0
11 328 374 373 0
11 -329 330 0
11 -329 338 0
11 329 -338 -330 0
11 330 -331 0
11 330 -336 0
11 -330 336 331 0
11 331 -332 0
11 331 -334 0
11 -331 334 332 0
11 -332 333 0
11 -332 376 0
11 332 -376 -333 0
11 -333 -377 0
11 -333 -378 0
11 333 378 377 0
11 -334 335 0
11 -334 377 0
11 334 -377 -335 0
11 -335 -376 0
11 -335 -378 0
11 335 378 376 0
11 -336 337 0
11 -336 378 0
11 336 -378 -337 0
11 -337 -376 0
11 -337 -377 0
11 337 377 376 0
11 338 -339 0
11 338 -344 0
11 -338 344 339 0
11 339 -340 0
11 339 -342 0
11 -339 342 340 0
11 -340 341 0
11 -340 379 0
11 340 -379 -341 0
11 -341 -380 0
11 -341 -381 0
11 341 381 380 0
11 -342 343 0
11 -342 380 0
11 342 -380 -343 0
11 -343 -379 0
11 -343 -381 0
11 343 381 379 0
11 -344 345 0
11 -344 381 0
11 344 -381 -345 0
11 -345 -379 0
11 -345 -380 0
11 345 380 379 0
11 346 506 0
11 346 -347 0
11 -346 347 -506 0
11 346 0
11 -347 348 0
11 -347 359 0
11 347 -359 -348 0
11 348 -349 0
11 348 -354 0
11 -348 354 349 0
11 349 -350 0
11 349 -352 0
11 -349 352 350 0
11 -350 351 0
11 -350 356 0
11 350 -356 -351 0
11 -351 -357 0
11 -351 -358 0
11 351 358 357 0
11 -352 353 0
11 -352 357 0
11 352 -357 -353 0
11 -353 -356 0
11 -353 -358 0
11 353 358 356 0
11 -354 355 0
11 -354 358 0
11 354 -358 -355 0
11 -355 -356 0
11 -355 -357 0
11 355 357 356 0
11 -359 311 0
11 -359 360 0
11 359 -360 -311 0
11 360 -361 0
11 360 -365 0
11 -360 365 361 0
11 361 -362 0
11 361 -363 0
11 -361 363 362 0
11 -362 264 0
11 -362 367 0
11 362 -367 -264 0
11 -363 364 0
11 -363 368 0
11 363 -368 -364 0
11 -364 -367 0
11 -364 -369 0
11 364 369 367 0
11 -365 366 0
11 -365 369 0
11 365 -369 -366 0
11 -366 -367 0
11 -366 -368 0
11 366 368 367 0
11 382 510 0
11 382 -383 0
11 -382 383 -510 0
11 382 0
11 -383 384 0
11 -383 398 0
11 383 -398 -384 0
11 384 -385 0
11 384 -391 0
11 -384 391 385 0
11 385 -386 0
11 385 -388 0
11 -385 388 386 0
11 -386 387 0
11 -386 481 0
11 386 -481 -387 0
11 -387 -483 0
11 -387 394 0
11 387 -394 483 0
11 -388 389 0
11 -388 482 0
11 388 -482 -389 0
11 -389 -483 0
11 -389 390 0
11 389 -390 483 0
11 -390 -481 0
11 -390 -484 0
11 390 484 481 0
11 391 -392 0
11 391 -395 0
11 -391 395 392 0
11 -392 393 0
11 -392 483 0
11 392 -483 -393 0
11 -393 -481 0
11 -393 394 0
11 393 -394 481 0
11 -394 -482 0
11 -394 -484 0
11 394 484 482 0
11 -395 396 0
11 -395 484 0
11 395 -484 -396 0
11 -396 -481 0
11 -396 397 0
11 396 -397 481 0
11 -397 -482 0
11 -397 -483 0
11 397 483 482 0
11 -398 399 0
11 -398 413 0
11 398 -413 -399 0
11 399 -400 0
11 399 -406 0
11 -399 406 400 0
11 400 -401 0
11 400 -403 0
11 -400 403 401 0
11 -401 402 0
11 -401 485 0
11 401 -485 -402 0
11 -402 -487 0
11 -402 409 0
11 402 -409 487 0
11 -403 404 0
11 -403 486 0
11 403 -486 -404 0
11 -404 -487 0
11 -404 405 0
11 404 -405 487 0
11 -405 -485 0
11 -405 -488 0
11 405 488 485 0
11 406 -407 0
11 406 -410 0
11 -406 410 407 0
11 -407 408 0
11 -407 487 0
11 407 -487 -408 0
11 -408 -485 0
11 -408 409 0
11 408 -409 485 0
11 -409 -486 0
11 -409 -488 0
11 409 488 486 0
11 -410 411 0
11 -410 488 0
11 410 -488 -411 0
11 -411 -485 0
11 -411 412 0
11 411 -412 485 0
11 -412 -486 0
11 -412 -487 0
11 412 487 486 0
11 -413 414 0
11 -413 428 0
11 413 -428 -414 0
11 414 -415 0
11 414 -421 0
11 -414 421 415 0
11 415 -416 0
11 415 -418 0
11 -415 418 416 0
11 -416 417 0
11 -416 489 0
11 416 -489 -417 0
11 -417 -491 0
11 -417 424 0
11 417 -424 491 0
11 -418 419 0
11 -418 490 0
11 418 -490 -419 0
11 -419 -491 0
11 -419 420 0
11 419 -420 491 0
11 -420 -489 0
11 -420 -492 0
11 420 492 489 0
11 421 -422 0
11 421 -425 0
11 -421 425 422 0
11 -422 423 0
11 -422 491 0
11 422 -491 -423 0
11 -423 -489 0
11 -423 424 0
11 423 -424 489 0
11 -424 -490 0
11 -424 -492 0
11 424 492 490 0
11 -425 426 0
11 -425 492 0
11 425 -492 -426 0
11 -426 -489 0
11 -426 427 0
11 426 -427 489 0
11 -427 -490 0
11 -427 -491 0
11 427 491 490 0
11 428 -429 0
11 428 -435 0
11 -428 435 429 0
11 429 -430 0
11 429 -432 0
11 -429 432 430 0
11 -430 431 0
11 -430 493 0
11 430 -493 -431 0
11 -431 -495 0
11 -431 438 0
11 431 -438 495 0
11 -432 433 0
11 -432 494 0
11 432 -494 -433 0
11 -433 -495 0
11 -433 434 0
11 433 -434 495 0
11 -434 -493 0
11 -434 -496 0
11 434 496 493 0
11 435 -436 0
11 435 -439 0
11 -435 439 436 0
11 -436 437 0
11 -436 495 0
11 436 -495 -437 0
11 -437 -493 0
11 -437 438 0
11 437 -438 493 0
11 -438 -494 0
11 -438 -496 0
11 438 496 494 0
11 -439 440 0
11 -439 496 0
11 439 -496 -440 0
11 -440 -493 0
11 -440 441 0
11 440 -441 493 0
11 -441 -494 0
11 -441 -495 0
11 441 495 494 0
11 442 511 0
11 442 -443 0
11 -442 443 -511 0
11 442 0
11 -443 444 0
11 -443 462 0
11 443 -462 -444 0
11 444 -445 0
11 444 -451 0
11 -444 451 445 0
11 445 -446 0
11 445 -448 0
11 -445 448 446 0
11 -446 447 0
11 -446 457 0
11 446 -457 -447 0
11 -447 -460 0
11 -447 454 0
11 447 -454 460 0
11 -448 449 0
11 -448 459 0
11 448 -459 -449 0
11 -449 -460 0
11 -449 450 0
11 449 -450 460 0
11 -450 -457 0
11 -450 -461 0
11 450 461 457 0
11 451 -452 0
11 451 -455 0
11 -451 455 452 0
11 -452 453 0
11 -452 460 0
11 452 -460 -453 0
11 -453 -457 0
11 -453 454 0
11 453 -454 457 0
11 -454 -459 0
11 -454 -461 0
11 454 461 459 0
11 -455 456 0
11 -455 461 0
11 455 -461 -456 0
11 -456 -457 0
11 -456 458 0
11 456 -458 457 0
11 -458 -459 0
11 -458 -460 0
11 458 460 459 0
11 -462 383 0
11 -462 463 0
11 462 -463 -383 0
11 463 -464 0
11 463 -470 0
11 -463 470 464 0
11 464 -465 0
11 464 -467 0
11 -464 467 465 0
11 -465 466 0
11 -465 476 0
11 465 -476 -466 0
11 -466 -479 0
11 -466 473 0
11 466 -473 479 0
11 -467 468 0
11 -467 478 0
11 467 -478 -468 0
11 -468 -479 0
11 -468 469 0
11 468 -469 479 0
11 -469 -476 0
11 -469 -480 0
11 469 480 476 0
11 470 -471 0
11 470 -474 0
11 -470 474 471 0
11 -471 472 0
11 -471 479 0
11 471 -479 -472 0
11 -472 -476 0
11 -472 473 0
11 472 -473 476 0
11 -473 -478 0
11 -473 -480 0
11 473 480 478 0
11 -474 475 0
11 -474 480 0
11 474 -480 -475 0
11 -475 -476 0
11 -475 477 0
11 475 -477 476 0
11 -477 -478 0
11 -477 -479 0
11 477 479 478 0
11 497 -498 0
11 497 -499 0
11 -497 499 498 0
11 497 0
11 -498 -501 0
11 -498 500 0
11 498 -500 501 0
11 -499 -500 0
11 -499 501 0
11 499 -501 500 0
11 502 -503 0
11 502 -504 0
11 -502 504 503 0
11 502 0
11 -503 -506 0
11 -503 505 0
11 503 -505 506 0
11 -504 -505 0
11 -504 506 0
11 504 -506 505 0
11 507 -508 0
11 507 -509 0
11 -507 509 508 0
11 507 0
11 -508 -511 0
11 -508 510 0
11 508 -510 511 0
11 -509 -510 0
11 -509 511 0
11 509 -511 510 0
